58
24
0 25 27 28 30 34 38 39 40 41 43 46 47 48 51
1 24 25 26 27 28 32 34 38 39 42 43 47 48 49 51 54 55 57
2 24 25 26 28 30 31 33 38 40 43 46 47 49 50 51 53 54 55
3 24 25 27 29 30 34 36 38 39 41 43 44 45 46 47 48 49 54 55 57
4 24 25 27 30 31 32 40 43 44 46 47 49 51 53 54 55
5 27 29 30 31 32 38 39 40 41 44 47 48 49 53 54
6 24 25 26 28 29 31 32 33 39 40 41 43 44 46 47 48 49 53 55
7 24 25 27 30 34 39 40 41 43 44 47 48 49 51 52 53 54 56
8 24 29 30 31 32 33 34 40 42 46 47 49 53 55
9 26 27 31 32 39 40 41 44 46 49 51 53 54 55 57
10 24 28 30 34 39 40 42 44 45 47 48 49 50 51 53 57
11 25 28 29 31 32 33 34 38 46 48 51 54 57
12 25 27 31 37 39 41 46 48 50 53 54 55
13 27 28 32 33 40 43 44 48 54 55 56
14 24 25 28 30 34 38 47 51
15 28 33 34 38 41 42 44 46 49 51 53 54 55
16 26 31 34 41 43 54 55
17 26 27 32 33 40 43 44 47 49 55 57
18 30 32 40 54 57
19 26 29 30 37 40 43 49
20 51
21 42 44
22 35 46 48
23 32 40 45
